(set-info :smt-lib-version 2.6)
(set-logic QF_LRA)
(set-info :source | TTA Startup. Bruno Dutertre (bruno@csl.sri.com) |)
(set-info :category "industrial")
(set-info :status sat)
(declare-fun x_0 () Bool)
(declare-fun x_1 () Bool)
(declare-fun x_2 () Bool)
(declare-fun x_3 () Real)
(declare-fun x_4 () Real)
(declare-fun x_5 () Real)
(declare-fun x_6 () Real)
(declare-fun x_7 () Bool)
(declare-fun x_8 () Bool)
(declare-fun x_9 () Bool)
(declare-fun x_10 () Real)
(declare-fun x_11 () Real)
(declare-fun x_12 () Bool)
(declare-fun x_13 () Bool)
(declare-fun x_14 () Bool)
(declare-fun x_15 () Bool)
(declare-fun x_16 () Bool)
(declare-fun x_17 () Bool)
(declare-fun x_18 () Real)
(declare-fun x_19 () Real)
(declare-fun x_20 () Real)
(declare-fun x_21 () Real)
(declare-fun x_22 () Real)
(declare-fun x_23 () Real)
(declare-fun x_24 () Real)
(declare-fun x_25 () Bool)
(declare-fun x_26 () Bool)
(declare-fun x_27 () Bool)
(declare-fun x_28 () Real)
(declare-fun x_29 () Real)
(declare-fun x_30 () Real)
(declare-fun x_31 () Bool)
(declare-fun x_32 () Bool)
(declare-fun x_33 () Bool)
(declare-fun x_34 () Bool)
(declare-fun x_35 () Bool)
(declare-fun x_36 () Bool)
(declare-fun x_37 () Real)
(declare-fun x_38 () Real)
(declare-fun x_39 () Real)
(declare-fun x_40 () Real)
(declare-fun x_41 () Real)
(declare-fun x_42 () Real)
(declare-fun x_43 () Real)
(declare-fun x_44 () Real)
(declare-fun x_45 () Real)
(declare-fun x_46 () Real)
(declare-fun x_47 () Real)
(declare-fun x_48 () Real)
(declare-fun x_49 () Real)
(declare-fun x_50 () Real)
(declare-fun x_51 () Real)
(declare-fun x_52 () Real)
(declare-fun x_53 () Real)
(declare-fun x_54 () Real)
(declare-fun x_55 () Real)
(declare-fun x_56 () Real)
(declare-fun x_57 () Real)
(declare-fun x_58 () Real)
(declare-fun x_59 () Real)
(declare-fun x_60 () Real)
(declare-fun x_61 () Real)
(declare-fun x_62 () Real)
(declare-fun x_63 () Real)
(declare-fun x_64 () Real)
(assert (let ((?v_103 (= x_18 0)) (?v_104 (= x_18 1)) (?v_110 (= x_18 2)) (?v_105 (= x_19 0)) (?v_106 (= x_19 1)) (?v_112 (= x_19 2)) (?v_107 (= x_20 0)) (?v_108 (= x_20 1)) (?v_114 (= x_20 2))) (let ((?v_127 (not ?v_104)) (?v_138 (not (< x_4 (+ x_10 18)))) (?v_128 (not ?v_106)) (?v_140 (not (< x_5 (+ x_10 21)))) (?v_130 (not ?v_108)) (?v_142 (not (< x_6 (+ x_10 24)))) (?v_121 (not ?v_110)) (?v_123 (not ?v_112)) (?v_125 (not ?v_114)) (?v_129 (not (<= (- x_5 x_4) x_40))) (?v_131 (not (<= (- x_6 x_4) x_40))) (?v_132 (not (<= (- x_6 x_5) x_40))) (?v_206 (= x_41 0)) (?v_134 (not (< (- x_4 x_10) 9))) (?v_122 (<= (- x_4 x_3) 9)) (?v_135 (not (< (- x_5 x_10) 12))) (?v_124 (<= (- x_5 x_3) 12)) (?v_136 (not (< (- x_6 x_10) 15))) (?v_126 (<= (- x_6 x_3) 15)) (?v_153 (= x_42 x_43)) (?v_155 (= x_42 x_44)) (?v_158 (= x_43 x_42)) (?v_162 (= x_43 x_44)) (?v_164 (= x_44 x_42)) (?v_165 (= x_44 x_43)) (?v_187 (< x_3 x_4))) (let ((?v_151 (not ?v_187)) (?v_176 (= x_42 x_46)) (?v_188 (< x_3 x_5))) (let ((?v_157 (not ?v_188)) (?v_178 (= x_43 x_46)) (?v_189 (< x_3 x_6))) (let ((?v_161 (not ?v_189)) (?v_180 (= x_44 x_46)) (?v_143 (= x_18 3))) (let ((?v_147 (not ?v_143)) (?v_195 (= x_3 x_4))) (let ((?v_152 (not ?v_195)) (?v_144 (= x_19 3))) (let ((?v_148 (not ?v_144)) (?v_228 (= x_3 x_5))) (let ((?v_154 (not ?v_228)) (?v_146 (= x_20 3))) (let ((?v_150 (not ?v_146)) (?v_244 (= x_3 x_6))) (let ((?v_156 (not ?v_244)) (?v_137 (and x_7 (< x_11 x_4))) (?v_139 (and x_8 (< x_11 x_5))) (?v_141 (and x_9 (< x_11 x_6))) (?v_115 (not x_7)) (?v_116 (not x_8)) (?v_117 (not x_9)) (?v_166 (< x_42 1)) (?v_173 (or (or x_7 x_8) x_9)) (?v_7 (= x_46 3)) (?v_8 (= x_46 2))) (let ((?v_174 (ite ?v_7 x_6 (ite ?v_8 x_5 x_4))) (?v_18 (= x_37 0)) (?v_19 (= x_37 1)) (?v_25 (= x_37 2)) (?v_20 (= x_38 0)) (?v_21 (= x_38 1)) (?v_27 (= x_38 2)) (?v_22 (= x_39 0)) (?v_23 (= x_39 1)) (?v_29 (= x_39 2))) (let ((?v_42 (not ?v_19)) (?v_53 (not (< x_22 (+ x_28 18)))) (?v_43 (not ?v_21)) (?v_55 (not (< x_23 (+ x_28 21)))) (?v_45 (not ?v_23)) (?v_57 (not (< x_24 (+ x_28 24)))) (?v_36 (not ?v_25)) (?v_38 (not ?v_27)) (?v_40 (not ?v_29)) (?v_44 (not (<= (- x_23 x_22) x_40))) (?v_46 (not (<= (- x_24 x_22) x_40))) (?v_47 (not (<= (- x_24 x_23) x_40))) (?v_49 (not (< (- x_22 x_28) 9))) (?v_37 (<= (- x_22 x_21) 9)) (?v_50 (not (< (- x_23 x_28) 12))) (?v_39 (<= (- x_23 x_21) 12)) (?v_51 (not (< (- x_24 x_28) 15))) (?v_41 (<= (- x_24 x_21) 15)) (?v_68 (= x_52 x_53)) (?v_70 (= x_52 x_54)) (?v_73 (= x_53 x_52)) (?v_77 (= x_53 x_54)) (?v_79 (= x_54 x_52)) (?v_80 (= x_54 x_53)) (?v_66 (not (< x_21 x_22))) (?v_91 (= x_52 x_56)) (?v_72 (not (< x_21 x_23))) (?v_93 (= x_53 x_56)) (?v_76 (not (< x_21 x_24))) (?v_95 (= x_54 x_56)) (?v_58 (= x_37 3))) (let ((?v_62 (not ?v_58)) (?v_67 (not (= x_21 x_22))) (?v_59 (= x_38 3))) (let ((?v_63 (not ?v_59)) (?v_69 (not (= x_21 x_23))) (?v_61 (= x_39 3))) (let ((?v_65 (not ?v_61)) (?v_71 (not (= x_21 x_24))) (?v_52 (and x_25 (< x_29 x_22))) (?v_54 (and x_26 (< x_29 x_23))) (?v_56 (and x_27 (< x_29 x_24))) (?v_30 (not x_25)) (?v_31 (not x_26)) (?v_32 (not x_27)) (?v_81 (< x_52 1)) (?v_88 (or (or x_25 x_26) x_27)) (?v_12 (= x_56 3)) (?v_13 (= x_56 2))) (let ((?v_89 (ite ?v_12 x_24 (ite ?v_13 x_23 x_22))) (?v_198 (and (= x_51 x_41) (= x_29 x_11)))) (let ((?v_229 (and ?v_198 (= x_25 x_7))) (?v_199 (= x_26 x_8))) (let ((?v_245 (and ?v_229 ?v_199)) (?v_200 (= x_27 x_9)) (?v_201 (= x_56 x_46)) (?v_202 (= x_28 x_10))) (let ((?v_196 (and (and (and ?v_245 ?v_200) ?v_201) ?v_202)) (?v_238 (= x_53 x_46)) (?v_192 (= x_21 x_4)) (?v_193 (= x_21 x_5)) (?v_194 (= x_21 x_6)) (?v_253 (= x_54 x_46)) (?v_212 (= x_41 1)) (?v_207 (= x_3 x_11)) (?v_225 (= x_39 x_20)) (?v_226 (= x_54 x_44)) (?v_227 (= x_24 x_6)) (?v_203 (= x_37 x_18)) (?v_197 (= x_52 x_42)) (?v_204 (= x_22 x_4)) (?v_222 (= x_38 x_19)) (?v_223 (= x_53 x_43)) (?v_224 (= x_23 x_5)) (?v_214 (= x_52 x_46)) (?v_102 (and (and ?v_115 ?v_116) ?v_117)) (?v_205 (= x_25 false))) (let ((?v_209 (and (and (and (and (and ?v_198 ?v_205) ?v_199) ?v_200) ?v_201) ?v_202)) (?v_231 (= x_26 false))) (let ((?v_233 (and (and (and (and ?v_229 ?v_231) ?v_200) ?v_201) ?v_202)) (?v_247 (= x_27 false))) (let ((?v_249 (and (and (and ?v_245 ?v_247) ?v_201) ?v_202)) (?v_9 (= x_42 3)) (?v_10 (= x_43 3)) (?v_11 (= x_44 3)) (?v_14 (= x_52 3)) (?v_15 (= x_53 3)) (?v_16 (= x_54 3)) (?v_2 (not x_0)) (?v_0 (not x_1))) (let ((?v_3 (and ?v_2 ?v_0)) (?v_1 (not x_2))) (let ((?v_257 (and ?v_3 ?v_1)) (?v_4 (and x_0 ?v_0))) (let ((?v_258 (and ?v_4 ?v_1)) (?v_259 (and (and ?v_2 x_1) ?v_1)) (?v_260 (and (and x_0 x_1) ?v_1)) (?v_261 (and ?v_3 x_2)) (?v_262 (and ?v_4 x_2)) (?v_17 (and (and ?v_30 ?v_31) ?v_32)) (?v_269 (not (= x_30 0))) (?v_270 (not (= x_30 1))) (?v_271 (not (= x_30 2))) (?v_272 (not (= x_30 3))) (?v_273 (not (= x_30 4))) (?v_274 (not (= x_30 5))) (?v_5 (or x_0 x_1))) (let ((?v_263 (or ?v_5 x_2)) (?v_6 (or ?v_2 x_1))) (let ((?v_264 (or ?v_6 x_2)) (?v_265 (or (or x_0 ?v_0) x_2)) (?v_266 (or (or ?v_2 ?v_0) x_2)) (?v_267 (or ?v_5 ?v_1)) (?v_268 (or ?v_6 ?v_1)) (?v_181 (ite ?v_9 1 (+ x_42 1))) (?v_182 (ite ?v_10 1 (+ x_43 1))) (?v_183 (ite ?v_11 1 (+ x_44 1))) (?v_96 (ite ?v_14 1 (+ x_52 1))) (?v_97 (ite ?v_15 1 (+ x_53 1))) (?v_98 (ite ?v_16 1 (+ x_54 1))) (?v_24 (or ?v_18 ?v_19)) (?v_26 (or ?v_20 ?v_21)) (?v_28 (or ?v_22 ?v_23)) (?v_48 (and (and ?v_88 (= x_51 0)) (= x_57 2)))) (let ((?v_33 (or ?v_24 ?v_25)) (?v_34 (or ?v_26 ?v_27)) (?v_35 (or ?v_28 ?v_29)) (?v_99 (or (or ?v_42 ?v_52) ?v_53)) (?v_100 (or (or ?v_43 ?v_54) ?v_55)) (?v_101 (or (or ?v_45 ?v_56) ?v_57)) (?v_90 (or ?v_62 ?v_66)) (?v_92 (or ?v_63 ?v_72)) (?v_94 (or ?v_65 ?v_76)) (?v_83 (and ?v_42 ?v_36)) (?v_84 (and ?v_43 ?v_38)) (?v_86 (and ?v_45 ?v_40)) (?v_109 (or ?v_103 ?v_104)) (?v_111 (or ?v_105 ?v_106)) (?v_113 (or ?v_107 ?v_108)) (?v_133 (and (and ?v_173 ?v_206) (= x_47 2)))) (let ((?v_118 (or ?v_109 ?v_110)) (?v_119 (or ?v_111 ?v_112)) (?v_120 (or ?v_113 ?v_114)) (?v_184 (or (or ?v_127 ?v_137) ?v_138)) (?v_185 (or (or ?v_128 ?v_139) ?v_140)) (?v_186 (or (or ?v_130 ?v_141) ?v_142)) (?v_175 (or ?v_147 ?v_151)) (?v_177 (or ?v_148 ?v_157)) (?v_179 (or ?v_150 ?v_161)) (?v_168 (and ?v_127 ?v_121)) (?v_169 (and ?v_128 ?v_123)) (?v_171 (and ?v_130 ?v_125)) (?v_190 (and (and ?v_187 ?v_188) ?v_189)) (?v_191 (and (and (<= x_21 x_4) (<= x_21 x_5)) (<= x_21 x_6))) (?v_208 (+ x_3 9))) (let ((?v_210 (= x_22 ?v_208)) (?v_217 (= x_29 (ite ?v_102 (+ x_3 x_40) x_11)))) (let ((?v_230 (and (= x_51 (ite ?v_102 0 x_41)) ?v_217)) (?v_218 (= x_26 (or ?v_102 x_8))) (?v_219 (= x_27 (or ?v_102 x_9))) (?v_220 (= x_56 (ite ?v_102 1 x_46))) (?v_221 (= x_28 (ite ?v_102 x_3 x_10)))) (let ((?v_211 (and (and (and (and (and ?v_230 ?v_205) ?v_218) ?v_219) ?v_220) ?v_221)) (?v_149 (+ x_3 3))) (let ((?v_234 (- ?v_149 x_40))) (let ((?v_213 (= x_22 ?v_234)) (?v_215 (and ?v_143 ?v_195)) (?v_216 (= x_22 ?v_149)) (?v_241 (= x_51 (ite ?v_102 1 x_41))) (?v_232 (+ x_3 12))) (let ((?v_235 (= x_23 ?v_232)) (?v_242 (= x_25 (or ?v_102 x_7)))) (let ((?v_246 (and ?v_230 ?v_242)) (?v_243 (= x_56 (ite ?v_102 2 x_46)))) (let ((?v_236 (and (and (and (and ?v_246 ?v_231) ?v_219) ?v_243) ?v_221)) (?v_237 (= x_23 ?v_234)) (?v_239 (and ?v_144 ?v_228)) (?v_240 (= x_23 ?v_149)) (?v_248 (+ x_3 15))) (let ((?v_250 (= x_24 ?v_248)) (?v_256 (= x_56 (ite ?v_102 3 x_46)))) (let ((?v_251 (and (and (and (and ?v_246 ?v_218) ?v_247) ?v_256) ?v_221)) (?v_252 (= x_24 ?v_234)) (?v_254 (and ?v_146 ?v_244)) (?v_255 (= x_24 ?v_149)) (?v_60 (+ x_28 3)) (?v_64 (+ x_21 3)) (?v_74 (+ x_22 3)) (?v_75 (+ x_23 3)) (?v_78 (+ x_24 3)) (?v_82 (+ (+ x_22 (* (ite ?v_81 (- (- 1 x_52) 1) (- (+ (- 3 x_52) 1) 1)) 3)) x_40)) (?v_85 (+ (+ x_23 (* (ite (< x_53 2) (- (- 2 x_53) 1) (- (+ (- 3 x_53) 2) 1)) 3)) x_40)) (?v_87 (+ (+ x_24 (* (ite (< x_54 3) (- x_55 1) (- (+ x_55 3) 1)) 3)) x_40)) (?v_145 (+ x_10 3)) (?v_159 (+ x_4 3)) (?v_160 (+ x_5 3)) (?v_163 (+ x_6 3)) (?v_167 (+ (+ x_4 (* (ite ?v_166 (- (- 1 x_42) 1) (- (+ (- 3 x_42) 1) 1)) 3)) x_40)) (?v_170 (+ (+ x_5 (* (ite (< x_43 2) (- (- 2 x_43) 1) (- (+ (- 3 x_43) 2) 1)) 3)) x_40)) (?v_172 (+ (+ x_6 (* (ite (< x_44 3) (- x_45 1) (- (+ x_45 3) 1)) 3)) x_40))) (and (and (and (and (and (and (and (and (and (and (and (and (and (and (and (and (and (and (and (and (and (and (and (and (and (and (and (and (and (and (and (and (and (and (and (and (and (and (and (and (and (and (and (and (and (and (and (and (and (and (and (and (and (and (and (and (and (and (and (and (and (and (and (and (and (and (and (and (and (and (and (and (and (and (and (and (and (and (and (and (and (and (and (and (and (and (and (and (and (and (and (and (and (and (and (and (and (and (and (and (and (and (and (and (and (and (and (and (and (and (and (<= x_61 6) (>= x_61 0)) (<= x_57 3)) (>= x_57 0)) (<= x_51 1)) (>= x_51 0)) (<= x_47 3)) (>= x_47 0)) (<= x_41 1)) (>= x_41 0)) (<= x_39 3)) (>= x_39 0)) (<= x_38 3)) (>= x_38 0)) (<= x_37 3)) (>= x_37 0)) (<= x_30 6)) (>= x_30 0)) (<= x_20 3)) (>= x_20 0)) (<= x_19 3)) (>= x_19 0)) (<= x_18 3)) (>= x_18 0)) (> x_40 0)) (< x_40 (/ 3 2))) (or (or (= x_42 1) (= x_42 2)) ?v_9)) (not ?v_166)) (<= x_42 3)) (or (or (= x_43 1) (= x_43 2)) ?v_10)) (not (< x_43 1))) (<= x_43 3)) (or (or (= x_44 1) (= x_44 2)) ?v_11)) (not (< x_44 1))) (<= x_44 3)) (or (or (= x_46 1) ?v_8) ?v_7)) (not (< x_46 1))) (<= x_46 3)) (or (or (= x_52 1) (= x_52 2)) ?v_14)) (not ?v_81)) (<= x_52 3)) (or (or (= x_53 1) (= x_53 2)) ?v_15)) (not (< x_53 1))) (<= x_53 3)) (or (or (= x_54 1) (= x_54 2)) ?v_16)) (not (< x_54 1))) (<= x_54 3)) (or (or (= x_56 1) ?v_13) ?v_12)) (not (< x_56 1))) (<= x_56 3)) (or (or (or (or (or ?v_257 ?v_258) ?v_259) ?v_260) ?v_261) ?v_262)) (<= x_21 x_22)) (<= x_21 x_23)) (<= x_21 x_24)) (or ?v_17 (and (<= x_28 x_21) (<= x_21 x_29)))) (or ?v_269 x_31)) (or ?v_270 x_32)) (or ?v_271 x_33)) (or ?v_272 x_34)) (or ?v_273 x_35)) (or ?v_274 x_36)) (or (or (or ?v_58 ?v_18) ?v_19) ?v_25)) (or (or (or ?v_59 ?v_20) ?v_21) ?v_27)) (or (or (or ?v_61 ?v_22) ?v_23) ?v_29)) (<= x_3 x_4)) (<= x_3 x_5)) (<= x_3 x_6)) (or ?v_102 (and (<= x_10 x_3) (<= x_3 x_11)))) (or ?v_263 x_12)) (or ?v_264 x_13)) (or ?v_265 x_14)) (or ?v_266 x_15)) (or ?v_267 x_16)) (or ?v_268 x_17)) (or (or (or ?v_143 ?v_103) ?v_104) ?v_110)) (or (or (or ?v_144 ?v_105) ?v_106) ?v_112)) (or (or (or ?v_146 ?v_107) ?v_108) ?v_114)) (= x_45 (- 3 x_44))) (= x_47 (ite ?v_7 x_20 (ite ?v_8 x_19 x_18)))) (= x_48 ?v_181)) (= x_49 ?v_182)) (= x_50 ?v_183)) (= x_55 (- 3 x_54))) (= x_57 (ite ?v_12 x_39 (ite ?v_13 x_38 x_37)))) (= x_58 ?v_96)) (= x_59 ?v_97)) (= x_60 ?v_98)) (= x_31 (and (and (and ?v_17 ?v_24) ?v_26) ?v_28))) (= x_32 (and (and (and (and (and (and (and (and (and ?v_48 ?v_33) ?v_34) ?v_35) (or ?v_36 (and (and ?v_30 ?v_49) ?v_37))) (or ?v_38 (and (and ?v_31 ?v_50) ?v_39))) (or ?v_40 (and (and ?v_32 ?v_51) ?v_41))) (or (or ?v_42 x_25) ?v_53)) (or (or ?v_43 x_26) ?v_55)) (or (or ?v_45 x_27) ?v_57)))) (= x_33 (and (and (and (and (and (and (and (and (and (and (and (and ?v_17 (or (or ?v_25 ?v_27) ?v_29)) ?v_33) ?v_34) ?v_35) (or ?v_36 ?v_37)) (or ?v_38 ?v_39)) (or ?v_40 ?v_41)) (or ?v_36 (and (or ?v_38 ?v_44) (or ?v_40 ?v_46)))) (or (or ?v_38 ?v_40) ?v_47)) (or ?v_36 (and (and (or ?v_42 (not (<= (- x_22 x_22) x_40))) (or ?v_43 ?v_44)) (or ?v_45 ?v_46)))) (or ?v_38 (and (and (or ?v_42 (not (<= (- x_22 x_23) x_40))) (or ?v_43 (not (<= (- x_23 x_23) x_40)))) (or ?v_45 ?v_47)))) (or ?v_40 (and (and (or ?v_42 (not (<= (- x_22 x_24) x_40))) (or ?v_43 (not (<= (- x_23 x_24) x_40)))) (or ?v_45 (not (<= (- x_24 x_24) x_40)))))))) (= x_34 (and (and (and (and (and (and (and (and (and (and (and ?v_48 (= ?v_89 (+ (+ x_28 (* (- x_56 1) 3)) 9))) (not (ite ?v_12 x_27 (ite ?v_13 x_26 x_25)))) (or (or (or ?v_36 (= 1 x_56)) ?v_52) (and ?v_49 ?v_37))) (or (or (or ?v_38 (= 2 x_56)) ?v_54) (and ?v_50 ?v_39))) (or (or (or ?v_40 (= 3 x_56)) ?v_56) (and ?v_51 ?v_41))) ?v_99) ?v_100) ?v_101) (or ?v_62 (and ?v_91 (= x_22 ?v_60)))) (or ?v_63 (and ?v_93 (= x_23 ?v_60)))) (or ?v_65 (and ?v_95 (= x_24 ?v_60)))))) (= x_35 (and (and (and (and (and (and (and (and (and (and ?v_17 (or (or ?v_58 ?v_59) ?v_61)) (or ?v_62 (<= x_22 ?v_64))) (or ?v_63 (<= x_23 ?v_64))) (or ?v_65 (<= x_24 ?v_64))) (or ?v_62 (and (and (or (or ?v_90 ?v_67) (and (= x_52 x_58) (= x_22 ?v_74))) (or ?v_63 (and (and (or (or ?v_66 ?v_72) (and ?v_68 (= x_22 x_23))) (or (or ?v_67 ?v_69) ?v_68)) (or (or ?v_66 ?v_69) (and (= x_52 x_59) (= x_22 ?v_75)))))) (or ?v_65 (and (and (or (or ?v_66 ?v_76) (and ?v_70 (= x_22 x_24))) (or (or ?v_67 ?v_71) ?v_70)) (or (or ?v_66 ?v_71) (and (= x_52 x_60) (= x_22 ?v_78)))))))) (or ?v_63 (and (and (or ?v_62 (and (and (or (or ?v_72 ?v_66) (and ?v_73 (= x_23 x_22))) (or (or ?v_69 ?v_67) ?v_73)) (or (or ?v_72 ?v_67) (and (= x_53 x_58) (= x_23 ?v_74))))) (or (or ?v_92 ?v_69) (and (= x_53 x_59) (= x_23 ?v_75)))) (or ?v_65 (and (and (or (or ?v_72 ?v_76) (and ?v_77 (= x_23 x_24))) (or (or ?v_69 ?v_71) ?v_77)) (or (or ?v_72 ?v_71) (and (= x_53 x_60) (= x_23 ?v_78)))))))) (or ?v_65 (and (and (or ?v_62 (and (and (or (or ?v_76 ?v_66) (and ?v_79 (= x_24 x_22))) (or (or ?v_71 ?v_67) ?v_79)) (or (or ?v_76 ?v_67) (and (= x_54 x_58) (= x_24 ?v_74))))) (or ?v_63 (and (and (or (or ?v_76 ?v_72) (and ?v_80 (= x_24 x_23))) (or (or ?v_71 ?v_69) ?v_80)) (or (or ?v_76 ?v_69) (and (= x_54 x_59) (= x_24 ?v_75)))))) (or (or ?v_94 ?v_71) (and (= x_54 x_60) (= x_24 ?v_78)))))) (or ?v_62 (and (and (or ?v_83 (not (<= x_22 ?v_82))) (or ?v_84 (not (<= x_23 ?v_82)))) (or ?v_86 (not (<= x_24 ?v_82)))))) (or ?v_63 (and (and (or ?v_83 (not (<= x_22 ?v_85))) (or ?v_84 (not (<= x_23 ?v_85)))) (or ?v_86 (not (<= x_24 ?v_85)))))) (or ?v_65 (and (and (or ?v_83 (not (<= x_22 ?v_87))) (or ?v_84 (not (<= x_23 ?v_87)))) (or ?v_86 (not (<= x_24 ?v_87)))))))) (= x_36 (and (and (and (and (and (and (and (and (and (and (and (and (and (and (and (and ?v_88 (= x_51 1)) (= x_57 3)) (= (ite ?v_12 x_54 (ite ?v_13 x_53 x_52)) x_56)) (= ?v_89 ?v_60)) (or ?v_90 (and ?v_91 (= x_22 ?v_89)))) (or ?v_92 (and ?v_93 (= x_23 ?v_89)))) (or ?v_94 (and ?v_95 (= x_24 ?v_89)))) (or (or ?v_62 ?v_67) (and (= ?v_96 x_56) (= ?v_89 ?v_74)))) (or (or ?v_63 ?v_69) (and (= ?v_97 x_56) (= ?v_89 ?v_75)))) (or (or ?v_65 ?v_71) (and (= ?v_98 x_56) (= ?v_89 ?v_78)))) ?v_99) ?v_100) ?v_101) (or ?v_36 ?v_52)) (or ?v_38 ?v_54)) (or ?v_40 ?v_56)))) (= x_12 (and (and (and ?v_102 ?v_109) ?v_111) ?v_113))) (= x_13 (and (and (and (and (and (and (and (and (and ?v_133 ?v_118) ?v_119) ?v_120) (or ?v_121 (and (and ?v_115 ?v_134) ?v_122))) (or ?v_123 (and (and ?v_116 ?v_135) ?v_124))) (or ?v_125 (and (and ?v_117 ?v_136) ?v_126))) (or (or ?v_127 x_7) ?v_138)) (or (or ?v_128 x_8) ?v_140)) (or (or ?v_130 x_9) ?v_142)))) (= x_14 (and (and (and (and (and (and (and (and (and (and (and (and ?v_102 (or (or ?v_110 ?v_112) ?v_114)) ?v_118) ?v_119) ?v_120) (or ?v_121 ?v_122)) (or ?v_123 ?v_124)) (or ?v_125 ?v_126)) (or ?v_121 (and (or ?v_123 ?v_129) (or ?v_125 ?v_131)))) (or (or ?v_123 ?v_125) ?v_132)) (or ?v_121 (and (and (or ?v_127 (not (<= (- x_4 x_4) x_40))) (or ?v_128 ?v_129)) (or ?v_130 ?v_131)))) (or ?v_123 (and (and (or ?v_127 (not (<= (- x_4 x_5) x_40))) (or ?v_128 (not (<= (- x_5 x_5) x_40)))) (or ?v_130 ?v_132)))) (or ?v_125 (and (and (or ?v_127 (not (<= (- x_4 x_6) x_40))) (or ?v_128 (not (<= (- x_5 x_6) x_40)))) (or ?v_130 (not (<= (- x_6 x_6) x_40)))))))) (= x_15 (and (and (and (and (and (and (and (and (and (and (and ?v_133 (= ?v_174 (+ (+ x_10 (* (- x_46 1) 3)) 9))) (not (ite ?v_7 x_9 (ite ?v_8 x_8 x_7)))) (or (or (or ?v_121 (= 1 x_46)) ?v_137) (and ?v_134 ?v_122))) (or (or (or ?v_123 (= 2 x_46)) ?v_139) (and ?v_135 ?v_124))) (or (or (or ?v_125 (= 3 x_46)) ?v_141) (and ?v_136 ?v_126))) ?v_184) ?v_185) ?v_186) (or ?v_147 (and ?v_176 (= x_4 ?v_145)))) (or ?v_148 (and ?v_178 (= x_5 ?v_145)))) (or ?v_150 (and ?v_180 (= x_6 ?v_145)))))) (= x_16 (and (and (and (and (and (and (and (and (and (and ?v_102 (or (or ?v_143 ?v_144) ?v_146)) (or ?v_147 (<= x_4 ?v_149))) (or ?v_148 (<= x_5 ?v_149))) (or ?v_150 (<= x_6 ?v_149))) (or ?v_147 (and (and (or (or ?v_175 ?v_152) (and (= x_42 x_48) (= x_4 ?v_159))) (or ?v_148 (and (and (or (or ?v_151 ?v_157) (and ?v_153 (= x_4 x_5))) (or (or ?v_152 ?v_154) ?v_153)) (or (or ?v_151 ?v_154) (and (= x_42 x_49) (= x_4 ?v_160)))))) (or ?v_150 (and (and (or (or ?v_151 ?v_161) (and ?v_155 (= x_4 x_6))) (or (or ?v_152 ?v_156) ?v_155)) (or (or ?v_151 ?v_156) (and (= x_42 x_50) (= x_4 ?v_163)))))))) (or ?v_148 (and (and (or ?v_147 (and (and (or (or ?v_157 ?v_151) (and ?v_158 (= x_5 x_4))) (or (or ?v_154 ?v_152) ?v_158)) (or (or ?v_157 ?v_152) (and (= x_43 x_48) (= x_5 ?v_159))))) (or (or ?v_177 ?v_154) (and (= x_43 x_49) (= x_5 ?v_160)))) (or ?v_150 (and (and (or (or ?v_157 ?v_161) (and ?v_162 (= x_5 x_6))) (or (or ?v_154 ?v_156) ?v_162)) (or (or ?v_157 ?v_156) (and (= x_43 x_50) (= x_5 ?v_163)))))))) (or ?v_150 (and (and (or ?v_147 (and (and (or (or ?v_161 ?v_151) (and ?v_164 (= x_6 x_4))) (or (or ?v_156 ?v_152) ?v_164)) (or (or ?v_161 ?v_152) (and (= x_44 x_48) (= x_6 ?v_159))))) (or ?v_148 (and (and (or (or ?v_161 ?v_157) (and ?v_165 (= x_6 x_5))) (or (or ?v_156 ?v_154) ?v_165)) (or (or ?v_161 ?v_154) (and (= x_44 x_49) (= x_6 ?v_160)))))) (or (or ?v_179 ?v_156) (and (= x_44 x_50) (= x_6 ?v_163)))))) (or ?v_147 (and (and (or ?v_168 (not (<= x_4 ?v_167))) (or ?v_169 (not (<= x_5 ?v_167)))) (or ?v_171 (not (<= x_6 ?v_167)))))) (or ?v_148 (and (and (or ?v_168 (not (<= x_4 ?v_170))) (or ?v_169 (not (<= x_5 ?v_170)))) (or ?v_171 (not (<= x_6 ?v_170)))))) (or ?v_150 (and (and (or ?v_168 (not (<= x_4 ?v_172))) (or ?v_169 (not (<= x_5 ?v_172)))) (or ?v_171 (not (<= x_6 ?v_172)))))))) (= x_17 (and (and (and (and (and (and (and (and (and (and (and (and (and (and (and (and ?v_173 ?v_212) (= x_47 3)) (= (ite ?v_7 x_44 (ite ?v_8 x_43 x_42)) x_46)) (= ?v_174 ?v_145)) (or ?v_175 (and ?v_176 (= x_4 ?v_174)))) (or ?v_177 (and ?v_178 (= x_5 ?v_174)))) (or ?v_179 (and ?v_180 (= x_6 ?v_174)))) (or (or ?v_147 ?v_152) (and (= ?v_181 x_46) (= ?v_174 ?v_159)))) (or (or ?v_148 ?v_154) (and (= ?v_182 x_46) (= ?v_174 ?v_160)))) (or (or ?v_150 ?v_156) (and (= ?v_183 x_46) (= ?v_174 ?v_163)))) ?v_184) ?v_185) ?v_186) (or ?v_121 ?v_137)) (or ?v_123 ?v_139)) (or ?v_125 ?v_141)))) (= x_61 (ite x_35 4 6))) (= x_62 ?v_182)) (= x_63 ?v_183)) (= x_64 ?v_181)) (or (and (and (and (and (and (and (and (and (and (and (and (ite ?v_102 ?v_190 (and ?v_190 (< x_3 x_11))) (ite ?v_102 (and ?v_191 (or (or ?v_192 ?v_193) ?v_194)) (and (and ?v_191 (<= x_21 x_11)) (or (or (or (= x_21 x_11) ?v_192) ?v_193) ?v_194)))) ?v_203) ?v_222) ?v_225) ?v_197) ?v_223) ?v_226) ?v_204) ?v_224) ?v_227) ?v_196) (and (or (or (and (and (and (and (and (and (or (or (or (or (or (or (or (or (or (and (and (and (and (and ?v_103 ?v_195) ?v_19) (= x_22 (+ x_3 18))) ?v_196) ?v_197) (and (and (and (and (and (and ?v_103 x_7) ?v_207) ?v_209) ?v_203) ?v_197) ?v_204)) (and (and (and (and (and ?v_104 ?v_195) ?v_25) ?v_210) ?v_211) ?v_197)) (and (and (and (and (and (and (and ?v_104 x_7) ?v_206) ?v_207) ?v_25) (= x_22 (- ?v_208 x_40))) ?v_209) ?v_197)) (and (and (and (and (and (and (and ?v_110 x_7) ?v_206) ?v_207) ?v_58) ?v_213) ?v_214) ?v_209)) (and (and (and (and (and ?v_110 ?v_195) ?v_210) ?v_211) ?v_203) ?v_197)) (and (and (and (and (and (and (and (or ?v_104 ?v_110) x_7) ?v_212) ?v_207) ?v_58) ?v_213) ?v_214) ?v_209)) (and (and (and (and (and ?v_215 (not (= ?v_181 1))) ?v_216) (= x_52 x_64)) ?v_196) ?v_203)) (and (and (and (and (and (and (and (and (and (and (and ?v_215 (= x_64 1)) ?v_216) (= x_52 ?v_181)) ?v_241) ?v_217) ?v_30) ?v_218) ?v_219) ?v_220) ?v_221) ?v_203)) (and (and (and (and (and (and (and ?v_143 x_7) ?v_212) ?v_207) ?v_209) ?v_203) ?v_197) ?v_204)) ?v_222) ?v_223) ?v_224) ?v_225) ?v_226) ?v_227) (and (and (and (and (and (and (or (or (or (or (or (or (or (or (or (and (and (and (and (and ?v_105 ?v_228) ?v_21) (= x_23 (+ x_3 21))) ?v_196) ?v_223) (and (and (and (and (and (and ?v_105 x_8) ?v_207) ?v_233) ?v_222) ?v_223) ?v_224)) (and (and (and (and (and ?v_106 ?v_228) ?v_27) ?v_235) ?v_236) ?v_223)) (and (and (and (and (and (and (and ?v_106 x_8) ?v_206) ?v_207) ?v_27) (= x_23 (- ?v_232 x_40))) ?v_233) ?v_223)) (and (and (and (and (and (and (and ?v_112 x_8) ?v_206) ?v_207) ?v_59) ?v_237) ?v_238) ?v_233)) (and (and (and (and (and ?v_112 ?v_228) ?v_235) ?v_236) ?v_222) ?v_223)) (and (and (and (and (and (and (and (or ?v_106 ?v_112) x_8) ?v_212) ?v_207) ?v_59) ?v_237) ?v_238) ?v_233)) (and (and (and (and (and ?v_239 (not (= ?v_182 2))) ?v_240) (= x_53 x_62)) ?v_196) ?v_222)) (and (and (and (and (and (and (and (and (and (and (and ?v_239 (= x_62 2)) ?v_240) (= x_53 ?v_182)) ?v_241) ?v_217) ?v_242) ?v_31) ?v_219) ?v_243) ?v_221) ?v_222)) (and (and (and (and (and (and (and ?v_144 x_8) ?v_212) ?v_207) ?v_233) ?v_222) ?v_223) ?v_224)) ?v_203) ?v_197) ?v_204) ?v_225) ?v_226) ?v_227)) (and (and (and (and (and (and (or (or (or (or (or (or (or (or (or (and (and (and (and (and ?v_107 ?v_244) ?v_23) (= x_24 (+ x_3 24))) ?v_196) ?v_226) (and (and (and (and (and (and ?v_107 x_9) ?v_207) ?v_249) ?v_225) ?v_226) ?v_227)) (and (and (and (and (and ?v_108 ?v_244) ?v_29) ?v_250) ?v_251) ?v_226)) (and (and (and (and (and (and (and ?v_108 x_9) ?v_206) ?v_207) ?v_29) (= x_24 (- ?v_248 x_40))) ?v_249) ?v_226)) (and (and (and (and (and (and (and ?v_114 x_9) ?v_206) ?v_207) ?v_61) ?v_252) ?v_253) ?v_249)) (and (and (and (and (and ?v_114 ?v_244) ?v_250) ?v_251) ?v_225) ?v_226)) (and (and (and (and (and (and (and (or ?v_108 ?v_114) x_9) ?v_212) ?v_207) ?v_61) ?v_252) ?v_253) ?v_249)) (and (and (and (and (and ?v_254 (not (= ?v_183 3))) ?v_255) (= x_54 x_63)) ?v_196) ?v_225)) (and (and (and (and (and (and (and (and (and (and (and ?v_254 (= x_63 3)) ?v_255) (= x_54 ?v_183)) ?v_241) ?v_217) ?v_242) ?v_218) ?v_32) ?v_256) ?v_221) ?v_225)) (and (and (and (and (and (and (and ?v_146 x_9) ?v_212) ?v_207) ?v_249) ?v_225) ?v_226) ?v_227)) ?v_203) ?v_197) ?v_204) ?v_222) ?v_223) ?v_224)) (= x_21 x_3)))) (or (or (or (or (or (or (and ?v_257 (= x_30 (ite x_31 0 (ite x_32 1 6)))) (and ?v_258 (= x_30 (ite x_32 1 (ite x_33 2 6))))) (and ?v_259 (= x_30 (ite x_33 2 (ite x_34 3 6))))) (and ?v_260 (= x_30 (ite x_34 3 (ite x_33 2 x_61))))) (and ?v_261 (= x_30 (ite x_35 4 (ite x_36 5 6))))) (and ?v_262 (= x_30 (ite x_36 5 x_61)))) (and (and (and (and (and (and ?v_263 ?v_264) ?v_265) ?v_266) ?v_267) ?v_268) (= x_30 6)))) ?v_269) ?v_270) ?v_271) ?v_272) ?v_273) ?v_274) (or (or ?v_1 ?v_0) ?v_2)))))))))))))))))))))))))))))))))))))))))))
(check-sat)
(exit)
